p cnf 92 118
c        1 int_ROM_SIZE_EQ_0
c        2 int_ROM_SIZE_EQ_OTHERVAL
c        3 hex_DEBUG_SERIAL_MEM_ADDRESS_EQ_OTHERVAL
c        4 boolean_DEBUG_SERIAL_MMIO
c        5 hex_DEBUG_SERIAL_PORT_EQ_0x3f8
c        6 hex_DEBUG_SERIAL_PORT_EQ_OTHERVAL
c        7 boolean_DEBUG_SERIAL
c        8 boolean_DEBUG_COREBOOT
c        9 boolean_DEBUG_IO
c       10 int_DEBUG_LEVEL_EQ_0
c       11 int_DEBUG_LEVEL_EQ_1
c       12 int_DEBUG_LEVEL_EQ_OTHERVAL
c       13 boolean_X86
c       14 boolean_PARISC
c       15 boolean_VGAHOOKS
c       16 boolean_USB_EHCI
c       17 boolean_USB_HUB
c       18 boolean_USB_MSC
c       19 boolean_USB_OHCI
c       20 boolean_USB_UAS
c       21 boolean_USB_UHCI
c       22 boolean_USB_XHCI
c       23 boolean_USB
c       24 boolean_TSC_TIMER
c       25 boolean_SERIAL
c       26 boolean_SERCON
c       27 boolean_TCGBIOS
c       28 boolean_S3_RESUME
c       29 boolean_PNPBIOS
c       30 boolean_PCIBIOS
c       31 boolean_PS2PORT
c       32 boolean_USB_MOUSE
c       33 boolean_MOUSE
c       34 boolean_LPT
c       35 boolean_KBD_CALL_INT15_4F
c       36 boolean_USB_KEYBOARD
c       37 boolean_KEYBOARD
c       38 boolean_AHCI
c       39 boolean_ATA_DMA
c       40 boolean_ATA_PIO32
c       41 boolean_ATA
c       42 boolean_CDROM_EMU
c       43 boolean_CDROM_BOOT
c       44 boolean_FLASH_FLOPPY
c       45 boolean_MEGASAS
c       46 boolean_NVME
c       47 boolean_SDCARD
c       48 boolean_DRIVES
c       49 boolean_DISABLE_A20
c       50 boolean_BOOTSPLASH
c       51 boolean_BOOTMENU
c       52 boolean_BOOTORDER
c       53 boolean_HOST_BIOS_GEOMETRY
c       54 boolean_BOOT
c       55 boolean_APMBIOS
c       56 boolean_COREBOOT
c       57 boolean_QEMU
c       58 boolean_CSM
c       59 boolean_ESP_SCSI
c       60 boolean_FW_ROMFILE_LOAD
c       61 boolean_LSI_SCSI
c       62 boolean_MPT_SCSI
c       63 boolean_PVSCSI
c       64 boolean_VIRTIO_BLK
c       65 boolean_VIRTIO_SCSI
c       66 boolean_QEMU_HARDWARE
c       67 boolean_XEN
c       68 boolean_THREADS
c       69 boolean_RELOCATE_INIT
c       70 boolean_LZMA
c       71 hex_CBFS_LOCATION_EQ_0x0
c       72 hex_CBFS_LOCATION_EQ_OTHERVAL
c       73 boolean_COREBOOT_FLASH
c       74 boolean_MULTIBOOT
c       75 boolean_ENTRY_EXTRASTACK
c       76 boolean_MALLOC_UPPERMEMORY
c       77 boolean_FLOPPY
c       78 boolean_RTC_TIMER
c       79 boolean_HARDWARE_IRQ
c       80 boolean_CALL32_SMM
c       81 boolean_USE_SMM
c       82 boolean_MTRR_INIT
c       83 boolean_PMTIMER
c       84 boolean_PMM
c       85 boolean_OPTIONROMS
c       86 boolean_WRITABLE_UPPERMEMORY
c       87 boolean_PIRTABLE
c       88 boolean_MPTABLE
c       89 boolean_SMBIOS
c       90 boolean_ACPI_DSDT
c       91 boolean_ACPI
c       92 boolean_ACPI_PARSE
-15 -14 0
15 14 0
-12 -13 0
-11 -13 0
-11 -12 0
11 12 13 0
-2 -3 0
2 3 0
49 -39 0
49 -42 0
55 -52 0
55 -53 0
49 -44 0
-8 -11 0
14 -76 0
-45 -15 0
49 -45 0
14 -80 0
55 -54 0
38 -36 0
14 -77 0
49 -46 0
49 -47 0
-47 -15 0
-86 -15 0
14 -84 0
38 34 -32 0
14 -70 0
49 -48 0
-15 -48 0
29 -28 0
-15 -69 0
24 -17 0
24 -18 0
38 -37 0
24 -37 0
24 -33 0
34 -33 0
24 -19 0
49 -19 0
24 -20 0
49 -21 0
24 -21 0
24 -22 0
24 -23 0
-15 -23 0
-57 -58 0
-57 -59 0
-59 -58 0
57 59 58 0
14 -57 0
14 -59 0
58 -92 0
14 -92 0
14 -93 0
58 -93 0
42 -40 0
42 -41 0
-51 -15 0
52 -51 0
44 -43 0
57 -74 0
57 -9 0
-9 -11 0
-5 -11 0
-8 -5 0
49 -78 0
80 -78 0
14 -89 0
58 -89 0
14 -83 0
58 -83 0
57 -75 0
58 -88 0
14 -88 0
86 -85 0
67 -58 0
80 -79 0
14 -90 0
58 -90 0
14 -82 0
58 -82 0
58 -87 0
58 -68 0
-15 -68 0
-6 -7 0
6 7 -8 0
8 -7 0
8 -6 0
92 -91 0
81 -82 0
82 -81 0
67 -10 0
-10 -11 0
49 -60 0
67 -60 0
14 -61 0
58 -61 0
67 -62 0
49 -62 0
74 -71 0
67 -63 0
49 -63 0
49 -64 0
-15 -64 0
67 -64 0
-15 -65 0
49 -65 0
67 -65 0
-15 -66 0
49 -66 0
67 -66 0
-72 -73 0
72 73 -74 0
74 -72 0
74 -73 0
4 -5 0
5 -4 0
